%Mem=2GB
%NProcShared=1
%chk=test.chk
# MP2/aug-cc-pvtz SCF=(Tight,Direct)  

Molecule Density and ESP Calculation

0 1
  C        20.556475       21.002508        0.834727
  C         20.725723       20.443964        2.193801
  N         19.987938       19.377911        2.575697
  H        19.154875       19.130798        2.108176
  H        20.161957       18.936296        3.454052
  O         21.514563       20.904819        3.003581
  H       19.895809       21.901970        0.852842
  H       21.613571       21.217834        0.521904
  H       20.093586       20.273293        0.144621


